
        $ From http://www.csplib.org/Problems/prob009/data/helmut.pdf
        $ Problem number 185
        $ Sequence length : 25
        language ESSENCE' 1.0
        letting sizemaster be 562
        letting sizes be sequence(2,3,5,8,13,19,20,29,33,47,53,54,64,65,76,93,119,123,142,157,161,180,184,221,259)
        